
Gurobi 6.5.2 (win64) logging started 07/24/16 17:28:30


Gurobi 6.5.2 (win64) logging started 07/24/16 17:28:30

Optimize a model with 3274 rows, 759 columns and 8299 nonzeros
Coefficient statistics:
  Matrix range    [6e-08, 1e+03]
  Objective range [1e+00, 1e+00]
  Bounds range    [1e+00, 1e+00]
  RHS range       [6e-06, 2e+03]
Presolve removed 3040 rows and 515 columns
Presolve time: 0.00s
Presolved: 234 rows, 244 columns, 1021 nonzeros
Variable types: 244 continuous, 0 integer (0 binary)

Root relaxation: objective 2.289737e+01, 239 iterations, 0.00 seconds

    Nodes    |    Current Node    |     Objective Bounds      |     Work
 Expl Unexpl |  Obj  Depth IntInf | Incumbent    BestBd   Gap | It/Node Time

*    0     0               0      22.8973663   22.89737  0.00%     -    0s

Explored 0 nodes (239 simplex iterations) in 0.00 seconds
Thread count was 8 (of 8 available processors)

Optimal solution found (tolerance 1.00e-04)
Best objective 2.289736631802e+01, best bound 2.289736631802e+01, gap 0.0%

Wrote requested result file 'H1\instance12\\Results12EC_Sol3.lp'

